time,p0,stress_xx,stress_yy,stress_zz,zdisp
1,0.010050335853501,-0.01,-0.01,-0.04,-0.01
2,0.020100671707003,-0.02,-0.02,-0.08,-0.02
3,0.030151007560504,-0.03,-0.03,-0.12,-0.03
4,0.040201343414006,-0.04,-0.04,-0.16,-0.04
5,0.050251679267507,-0.05,-0.05,-0.2,-0.05
6,0.060302015121008,-0.06,-0.06,-0.24,-0.06
7,0.07035235097451,-0.07,-0.07,-0.28,-0.07
8,0.080402686828011,-0.08,-0.08,-0.32,-0.08
9,0.090453022681513,-0.09,-0.09,-0.36,-0.09
10,0.10050335853501,-0.1,-0.1,-0.4,-0.1

